50
    1   204   218
    2   372   419
    3    49     5
    4   419   426
    5     1    15
    6   471   464
    7    57    28
    8   287   318
    9   237   260
   10   219   221
   11   404   410
   12   448   458
   13   214   203
   14    95    71
   15   237   267
   16    46    91
   17   286   272
   18   314   307
   19   218   224
   20     5    49
   21   146   164
   22   126    78
   23   412   447
   24   262   257
   25   284   319
   26   174   207
   27   380   401
   28   256   226
   29    95    60
   30   415   446
   31   374   380
   32   294   342
   33   293   246
   34   431   408
   35   302   303
   36   410   376
   37   140   155
   38   427   447
   39   158   179
   40   288   297
   41     1     2
   42   432   420
   43   187   165
   44   315   312
   45   169   182
   46   485   453
   47    48    40
   48   482   472
   49    92    50
   50   341   323
6441
